c PicoSAT SAT Solver Version 959
c Copyright (c) 2006 - 2014 Armin Biere JKU Linz
c gcc -Wall -Wextra -DNDEBUG -O3 -fno-strict-aliasing
c
c using 2 as default phase
c
c parsing <stdin>
c parsed header 'p cnf 200 850'
c initialized 200 variables
c found 850 non trivial clauses
c
c random number generator seed 0
c 
c  seconds     variables   original    learned     agility
c         level        used      conflicts    limit          MB
c 
c s   0.0   0.0   200   0.0   850     0     0     0   0.0   0.0 
c 
c initial reduction limit 1000 clauses
c 
c +   0.0  19.6   200  91.0   850   100   100  1100  10.8   0.0 
c R   0.0  19.6   200  91.0   850   101   101  1100  10.8   0.0 
c +   0.0  15.0   200  98.0   850   221   221  1210  20.4   0.1 
c +   0.0  13.2   200  98.5   850   367   367  1331  25.9   0.1 
c N   0.0  13.1   200  99.0   850   401   401  1331  26.3   0.1 
c +   0.0  12.4   200 100.0   850   543   543  1464  28.7   0.1 
c +   0.0  11.5   200 100.0   850   755   755  1610  30.1   0.1 
c +   0.0  10.9   200 100.0   850  1011  1011  1771  29.0   0.1 
c N   0.0  10.6   200 100.0   850  1203  1203  1771  29.2   0.1 
c +   0.0  10.5   200 100.0   850  1320  1320  1948  30.7   0.1 
c +   0.0  10.0   200 100.0   850  1693  1693  2142  31.0   0.1 
c +   0.0   9.9   200 100.0   850  2144  2143  2356  31.1   0.2 
c +   0.0   9.7   200 100.0   850  2689  1505  2591  30.5   0.2 
c N   0.0   9.4   200 100.0   850  3208  2024  2591  31.7   0.2 
c +   0.0   9.4   200 100.0   850  3348  2164  2850  30.6   0.2 
c +   0.0   8.9   200 100.0   850  4145  1527  3135  30.8   0.1 
c s   0.0   8.8   199 100.0   845  4177  1056  3135  30.4   0.1 
c N   0.0   8.8   199 100.0   845  4279  1157  3135  30.6   0.1 
c N   0.1   8.7   199 100.0   845  4579  1456  3135  29.8   0.1 
c +   0.1   8.6   199 100.0   845  5109  1985  3448  32.4   0.2 
c 
c  seconds     variables   original    learned     agility
c         level        used      conflicts    limit          MB
c 
c N   0.1   8.5   198 100.0   845  5399  2268  3448  31.4   0.2 
c N   0.1   8.4   198 100.0   845  5701  2569  3448  31.2   0.2 
c N   0.1   8.4   197 100.0   845  5862  2726  3448  31.8   0.2 
c N   0.1   8.3   196 100.0   845  6115  2969  3448  33.5   0.2 
c +   0.1   8.2   192 100.0   845  6275  3117  3792  32.2   0.2 
c 0   0.1   8.2   110 100.0   845  6315  3140  3792  31.8   0.2 
c 
c  seconds     variables   original    learned     agility
c         level        used      conflicts    limit          MB
c 
s UNSATISFIABLE
c
c 10 iterations
c 2 restarts
c 0 failed literals
c 6315 conflicts
c 7299 decisions
c 90 fixed variables
c 58408 learned literals
c 27.9% deleted literals
c 307531 propagations
c 1792140 visits
c 100.0% variables used
c 0.1 seconds in library
c 4.3 megaprops/second
c 24.9 megavisits/second
c probing 0.0 seconds 0%
c 2 simplifications
c 2 reductions
c 0.2 MB recycled
c 0.2 MB maximally allocated
c 0.072000 seconds total run time
